p cnf 35 235
1 6 11 16 21 26 31 0
2 7 12 17 22 27 32 0
3 8 13 18 23 28 33 0
4 9 14 19 24 29 34 0
5 10 15 20 25 30 35 0
-1 -2 0
-1 -3 0
-1 -4 0
-1 -5 0
-2 -3 0
-2 -4 0
-2 -5 0
-3 -4 0
-3 -5 0
-4 -5 0
-6 -7 0
-6 -8 0
-6 -9 0
-6 -10 0
-7 -8 0
-7 -9 0
-7 -10 0
-8 -9 0
-8 -10 0
-9 -10 0
-11 -12 0
-11 -13 0
-11 -14 0
-11 -15 0
-12 -13 0
-12 -14 0
-12 -15 0
-13 -14 0
-13 -15 0
-14 -15 0
-16 -17 0
-16 -18 0
-16 -19 0
-16 -20 0
-17 -18 0
-17 -19 0
-17 -20 0
-18 -19 0
-18 -20 0
-19 -20 0
-21 -22 0
-21 -23 0
-21 -24 0
-21 -25 0
-22 -23 0
-22 -24 0
-22 -25 0
-23 -24 0
-23 -25 0
-24 -25 0
-26 -27 0
-26 -28 0
-26 -29 0
-26 -30 0
-27 -28 0
-27 -29 0
-27 -30 0
-28 -29 0
-28 -30 0
-29 -30 0
-31 -32 0
-31 -33 0
-31 -34 0
-31 -35 0
-32 -33 0
-32 -34 0
-32 -35 0
-33 -34 0
-33 -35 0
-34 -35 0
-1 -12 0
-1 -13 0
-1 -14 0
-1 -15 0
-2 -11 0
-2 -13 0
-2 -14 0
-2 -15 0
-3 -11 0
-3 -12 0
-3 -14 0
-3 -15 0
-4 -11 0
-4 -12 0
-4 -13 0
-4 -15 0
-5 -11 0
-5 -12 0
-5 -13 0
-5 -14 0
-1 -22 0
-1 -23 0
-1 -24 0
-1 -25 0
-2 -21 0
-2 -23 0
-2 -24 0
-2 -25 0
-3 -21 0
-3 -22 0
-3 -24 0
-3 -25 0
-4 -21 0
-4 -22 0
-4 -23 0
-4 -25 0
-5 -21 0
-5 -22 0
-5 -23 0
-5 -24 0
-1 -32 0
-1 -33 0
-1 -34 0
-1 -35 0
-2 -31 0
-2 -33 0
-2 -34 0
-2 -35 0
-3 -31 0
-3 -32 0
-3 -34 0
-3 -35 0
-4 -31 0
-4 -32 0
-4 -33 0
-4 -35 0
-5 -31 0
-5 -32 0
-5 -33 0
-5 -34 0
-6 -12 0
-6 -13 0
-6 -14 0
-6 -15 0
-7 -11 0
-7 -13 0
-7 -14 0
-7 -15 0
-8 -11 0
-8 -12 0
-8 -14 0
-8 -15 0
-9 -11 0
-9 -12 0
-9 -13 0
-9 -15 0
-10 -11 0
-10 -12 0
-10 -13 0
-10 -14 0
-16 -32 0
-16 -33 0
-16 -34 0
-16 -35 0
-17 -31 0
-17 -33 0
-17 -34 0
-17 -35 0
-18 -31 0
-18 -32 0
-18 -34 0
-18 -35 0
-19 -31 0
-19 -32 0
-19 -33 0
-19 -35 0
-20 -31 0
-20 -32 0
-20 -33 0
-20 -34 0
-21 -27 0
-21 -28 0
-21 -29 0
-21 -30 0
-22 -26 0
-22 -28 0
-22 -29 0
-22 -30 0
-23 -26 0
-23 -27 0
-23 -29 0
-23 -30 0
-24 -26 0
-24 -27 0
-24 -28 0
-24 -30 0
-25 -26 0
-25 -27 0
-25 -28 0
-25 -29 0
-21 -32 0
-21 -33 0
-21 -34 0
-21 -35 0
-22 -31 0
-22 -33 0
-22 -34 0
-22 -35 0
-23 -31 0
-23 -32 0
-23 -34 0
-23 -35 0
-24 -31 0
-24 -32 0
-24 -33 0
-24 -35 0
-25 -31 0
-25 -32 0
-25 -33 0
-25 -34 0
-26 -32 0
-26 -33 0
-26 -34 0
-26 -35 0
-27 -31 0
-27 -33 0
-27 -34 0
-27 -35 0
-28 -31 0
-28 -32 0
-28 -34 0
-28 -35 0
-29 -31 0
-29 -32 0
-29 -33 0
-29 -35 0
-30 -31 0
-30 -32 0
-30 -33 0
-30 -34 0
